p edge 55 141
e 1 3
e 1 5
e 1 7
e 1 9
e 1 19
e 1 39
e 1 40
e 1 41
e 1 50
e 2 25
e 2 36
e 3 6
e 3 8
e 3 12
e 3 35
e 3 39
e 3 40
e 3 45
e 3 47
e 4 11
e 4 16
e 4 29
e 4 55
e 5 27
e 5 32
e 5 34
e 5 37
e 5 42
e 6 10
e 6 25
e 6 35
e 6 37
e 6 47
e 6 49
e 7 12
e 7 16
e 7 30
e 8 20
e 9 41
e 9 49
e 10 21
e 10 28
e 10 37
e 10 41
e 10 53
e 10 55
e 11 27
e 11 33
e 12 21
e 12 26
e 12 27
e 12 39
e 12 41
e 12 42
e 12 55
e 13 20
e 13 53
e 13 54
e 14 40
e 14 44
e 14 47
e 14 52
e 14 54
e 15 20
e 15 22
e 15 29
e 15 54
e 16 28
e 16 34
e 17 21
e 17 35
e 17 38
e 17 49
e 17 55
e 18 33
e 18 55
e 19 22
e 19 34
e 19 46
e 20 21
e 21 22
e 21 30
e 21 32
e 21 42
e 21 49
e 22 23
e 22 29
e 22 36
e 22 46
e 22 50
e 23 49
e 24 30
e 24 33
e 24 46
e 25 39
e 26 43
e 26 54
e 26 55
e 27 31
e 27 33
e 27 49
e 28 31
e 28 35
e 28 47
e 28 48
e 28 54
e 29 41
e 30 49
e 31 47
e 31 52
e 32 39
e 32 46
e 32 53
e 33 34
e 33 42
e 33 51
e 33 52
e 34 37
e 34 38
e 34 40
e 34 41
e 34 44
e 34 51
e 35 53
e 36 38
e 36 53
e 37 47
e 38 40
e 38 52
e 39 49
e 40 43
e 40 55
e 41 50
e 41 52
e 41 53
e 43 53
e 44 51
e 44 55
e 48 52
e 49 50
e 52 53
